NAME : Instance 0
COMMENT : Comment 0
TYPE : TSP
DIMENSION: 30
EDGE_WEIGHT_TYPE : EUC_2D
NODE_COORD_SECTION
  1 1178 431
  2 1591 1956
  3 1671 1632
  4 746 923
  5 1410 1570
  6 1633 1451
  7 1522 1110
  8 1842 1326
  9 879 1503
  10 774 214
  11 1851 1759
  12 876 567
  13 13 15
  14 1073 1132
  15 1578 80
  16 364 1964
  17 1500 794
  18 1355 1555
  19 1031 66
  20 912 970
  21 828 1860
  22 1034 1444
  23 1846 1718
  24 258 1023
  25 835 1837
  26 195 491
  27 1706 185
  28 1546 801
  29 700 864
  30 1608 1573
EOF
